============================[ Problem Statistics ]=============================
|                                                                             |
|  Number of variables:           729                                         |
|  Number of clauses:            9279                                         |
|  Parse time:                   0.00 s                                       |
|  Eliminated clauses:           0.00 Mb                                      |
|  Simplification time:          0.00 s                                       |
|                                                                             |
============================[ Search Statistics ]==============================
| Conflicts |          ORIGINAL         |          LEARNT          | Progress |
|           |    Vars  Clauses Literals |    Limit  Clauses Lit/Cl |          |
===============================================================================
===============================================================================
restarts              : 1
conflicts             : 1              (193 /sec)
decisions             : 3              (0.00 % random) (579 /sec)
propagations          : 770            (148677 /sec)
conflict literals     : 1              (0.00 % deleted)
Memory used           : 5.12 MB
CPU time              : 0.005179 s

SATISFIABLE
